\ Model _copy
\ LP format - for model browsing. Use MPS format to capture full model detail.
Maximize
  0 y_1 + 0 y_2
Subject To
 a0: x_1_0 + x_2_0 = 1
 d0: y_0 = 0
 c2: x_1_0 = 1 -> y_0 - y_1 >= 1
 c4: x_2_0 = 1 -> y_0 - y_2 >= 1
Bounds
 y_0 free
Binaries
 x_1_0 x_2_0
Generals
 y_1 y_0 y_2
End
